(set-info :smt-lib-version 2.6)
(set-logic QF_UFLRA)
(set-info :source |
MathSat group

|)
(set-info :category "random")
(set-info :status sat)
(declare-fun x0 () Real)
(declare-fun x1 () Real)
(declare-fun x2 () Real)
(declare-fun x3 () Real)
(declare-fun x4 () Real)
(declare-fun x5 () Real)
(declare-fun x6 () Real)
(declare-fun x7 () Real)
(declare-fun x8 () Real)
(declare-fun x9 () Real)
(declare-fun x10 () Real)
(declare-fun x11 () Real)
(declare-fun x12 () Real)
(declare-fun x13 () Real)
(declare-fun x14 () Real)
(declare-fun x15 () Real)
(declare-fun x16 () Real)
(declare-fun x17 () Real)
(declare-fun x18 () Real)
(declare-fun x19 () Real)
(declare-fun x20 () Real)
(declare-fun x21 () Real)
(declare-fun x22 () Real)
(declare-fun x23 () Real)
(declare-fun x24 () Real)
(declare-fun x25 () Real)
(declare-fun x26 () Real)
(declare-fun x27 () Real)
(declare-fun x28 () Real)
(declare-fun x29 () Real)
(declare-fun x30 () Real)
(declare-fun x31 () Real)
(declare-fun x32 () Real)
(declare-fun x33 () Real)
(declare-fun x34 () Real)
(declare-fun x35 () Real)
(declare-fun x36 () Real)
(declare-fun x37 () Real)
(declare-fun x38 () Real)
(declare-fun x39 () Real)
(declare-fun f0_1 (Real) Real)
(declare-fun f0_2 (Real Real) Real)
(declare-fun f0_3 (Real Real Real) Real)
(declare-fun f0_4 (Real Real Real Real) Real)
(declare-fun P0 () Bool)
(declare-fun P1 () Bool)
(declare-fun P2 () Bool)
(declare-fun P3 () Bool)
(declare-fun P4 () Bool)
(declare-fun P5 () Bool)
(declare-fun P6 () Bool)
(declare-fun P7 () Bool)
(declare-fun P8 () Bool)
(declare-fun P9 () Bool)
(declare-fun P10 () Bool)
(declare-fun P11 () Bool)
(declare-fun P12 () Bool)
(declare-fun P13 () Bool)
(declare-fun P14 () Bool)
(declare-fun P15 () Bool)
(declare-fun P16 () Bool)
(declare-fun P17 () Bool)
(declare-fun P18 () Bool)
(declare-fun P19 () Bool)
(declare-fun P20 () Bool)
(declare-fun P21 () Bool)
(declare-fun P22 () Bool)
(declare-fun P23 () Bool)
(declare-fun P24 () Bool)
(declare-fun P25 () Bool)
(declare-fun P26 () Bool)
(declare-fun P27 () Bool)
(declare-fun P28 () Bool)
(declare-fun P29 () Bool)
(declare-fun P30 () Bool)
(declare-fun P31 () Bool)
(declare-fun P32 () Bool)
(declare-fun P33 () Bool)
(declare-fun P34 () Bool)
(declare-fun P35 () Bool)
(declare-fun P36 () Bool)
(declare-fun P37 () Bool)
(declare-fun P38 () Bool)
(declare-fun P39 () Bool)
(assert (let ((?v_121 (<= (+ (- (* 34 x29) (* 41 x32)) (* 56 x17)) 45)) (?v_111 (= (+ (- (* 6 x37) (* 55 x9)) (* 14 x34)) 24)) (?v_65 (< (+ (- (* 55 x39) (* 8 x24)) (* 50 x24)) 5)) (?v_134 (<= (+ (- (* 50 x0) (* 43 x9)) (* 19 x37)) 39)) (?v_73 (<= (- (+ (* 26 x0) (* 6 x16)) (* 27 x32)) 35)) (?v_167 (< (- (- (* 22 x39) (* 40 x28)) (* 5 x19)) 21)) (?v_69 (<= (- (- (* 5 x0) (* 56 x26)) (* 25 x19)) 22)) (?v_12 (< (- (- (* 44 x30) (* 2 x33)) (* 56 x10)) 58)) (?v_2 (distinct (- (+ (* 31 x6) (* 15 x39)) (* 30 x15)) 50)) (?v_62 (<= (- (- (* 51 x22) (* 2 x14)) (* 7 x23)) 35)) (?v_177 (distinct x8 (f0_1 x12))) (?v_71 (= x38 (f0_1 x10))) (?v_107 (distinct x4 x1)) (?v_15 (= x3 (f0_2 x25 x14))) (?v_168 (= (f0_2 x30 x30) (f0_1 x5))) (?v_75 (= (f0_1 x16) x9)) (?v_142 (f0_1 x28))) (let ((?v_50 (distinct ?v_142 (f0_2 x39 x14))) (?v_57 (= x37 (f0_1 x34))) (?v_76 (distinct (f0_2 x16 x35) x33)) (?v_7 (distinct (f0_2 x3 x16) x6)) (?v_105 (distinct x27 x29)) (?v_72 (= x34 (f0_1 x30))) (?v_155 (= (f0_2 x14 x18) (f0_2 x34 x6))) (?v_157 (f0_1 x6))) (let ((?v_87 (= ?v_157 (f0_2 x4 x24))) (?v_80 (distinct (f0_1 x3) x35)) (?v_159 (distinct ?v_142 x24)) (?v_117 (= (f0_2 x33 x14) x32)) (?v_35 (f0_1 x15))) (let ((?v_46 (= x6 ?v_35)) (?v_200 (= (f0_1 x32) x38)) (?v_21 (= (f0_1 x29) x5)) (?v_1 (= x32 x33)) (?v_149 (distinct x6 (f0_1 x17))) (?v_172 (= (f0_2 x11 x14) (f0_2 x15 x23))) (?v_104 (distinct (f0_2 x5 x38) (f0_1 x9))) (?v_17 (distinct x0 x38)) (?v_95 (distinct (f0_2 x3 x33) x8)) (?v_158 (f0_1 x37))) (let ((?v_20 (distinct (f0_1 x20) ?v_158)) (?v_166 (= x12 (f0_2 x25 x38))) (?v_68 (distinct x9 x20)) (?v_26 (distinct (f0_1 x2) (f0_2 x22 x34))) (?v_97 (distinct (f0_2 x7 x12) (f0_2 x17 x24))) (?v_3 (= x30 ?v_35)) (?v_52 (distinct x30 (f0_2 x21 x38))) (?v_176 (distinct x9 (f0_1 x13))) (?v_110 (= (f0_2 x33 x22) (f0_1 x14))) (?v_163 (= ?v_157 ?v_158)) (?v_161 (= (f0_2 x2 x32) x37)) (?v_39 (= (f0_1 x35) (f0_2 x9 x23))) (?v_5 (distinct x25 x38)) (?v_124 (= x9 x5)) (?v_150 (not P3)) (?v_64 (not ?v_7)) (?v_204 (not P0)) (?v_4 (not P24)) (?v_130 (not P12))) (let ((?v_8 (not ?v_3)) (?v_131 (not ?v_68)) (?v_98 (not ?v_134)) (?v_24 (not ?v_15)) (?v_81 (not P9)) (?v_137 (not ?v_62)) (?v_28 (not ?v_161)) (?v_25 (not P26)) (?v_32 (not ?v_166)) (?v_60 (not ?v_95)) (?v_48 (not ?v_5)) (?v_96 (not P34)) (?v_58 (not P14)) (?v_99 (not P19)) (?v_40 (not ?v_167)) (?v_18 (not P30))) (let ((?v_114 (or ?v_8 ?v_18)) (?v_115 (not ?v_21)) (?v_116 (not P36)) (?v_148 (not ?v_117)) (?v_43 (not ?v_172)) (?v_23 (not P33)) (?v_36 (not P38)) (?v_63 (not P27)) (?v_45 (not P35)) (?v_108 (not ?v_76)) (?v_186 (not P11)) (?v_66 (not ?v_20)) (?v_30 (not P10)) (?v_82 (not ?v_149)) (?v_199 (not ?v_2)) (?v_136 (not ?v_39)) (?v_33 (not P22)) (?v_54 (not P15)) (?v_126 (not ?v_50)) (?v_44 (not P4)) (?v_147 (not P37)) (?v_153 (not P1)) (?v_84 (not ?v_168)) (?v_67 (not ?v_111)) (?v_92 (not ?v_97)) (?v_128 (not ?v_46)) (?v_195 (not P2)) (?v_173 (not ?v_1)) (?v_132 (not P7)) (?v_74 (not ?v_124)) (?v_86 (not ?v_57)) (?v_88 (not ?v_52)) (?v_118 (not ?v_65)) (?v_146 (not P13)) (?v_174 (not P29)) (?v_182 (not ?v_69)) (?v_123 (not ?v_71)) (?v_190 (not ?v_73)) (?v_79 (not ?v_72)) (?v_103 (not ?v_75)) (?v_144 (not ?v_155)) (?v_138 (not P25)) (?v_94 (not P23)) (?v_194 (not P32)) (?v_106 (not P16)) (?v_152 (not ?v_26)) (?v_129 (not P8)) (?v_184 (not P20)) (?v_185 (not ?v_87)) (?v_101 (not P6)) (?v_165 (not P18)) (?v_119 (not ?v_104)) (?v_133 (not P28)) (?v_109 (not ?v_107)) (?v_160 (not ?v_105)) (?v_192 (not ?v_17)) (?v_120 (not ?v_110)) (?v_122 (not P5)) (?v_170 (not P39)) (?v_162 (not ?v_121)) (?v_197 (not ?v_80)) (?v_171 (not P17)) (?v_198 (not ?v_159)) (?v_189 (not P21)) (?v_205 (or ?v_15 ?v_40)) (?v_191 (not ?v_176)) (?v_202 (not ?v_177)) (?v_193 (not P31)) (?v_196 (not ?v_12)) (?v_203 (not ?v_163)) (?v_201 (not ?v_200)) (?v_112 (<= (+ (- 0 (* 50 x16)) (* 32 x24)) 51))) (let ((?v_47 (not ?v_112)) (?v_113 (<= (+ (* 5 x12) (* 44 x23) (* 15 x30)) 20))) (let ((?v_41 (not ?v_113)) (?v_22 (<= (+ (* 37 x5) x14 (* 36 x6)) 12))) (let ((?v_83 (not ?v_22)) (?v_139 (< (+ (- 0 (* 11 x3)) (* 39 x18)) 14))) (let ((?v_140 (not ?v_139)) (?v_164 (< (+ (- (* (- 40) x2) (* 33 x25)) (* 34 x20)) (- 20)))) (let ((?v_6 (not ?v_164)) (?v_0 (distinct (+ (* (- 53) x26) (* 38 x28) (* 55 x6)) 0)) (?v_13 (= (+ (* (- 50) x31) (* 45 x38) (* 55 x22)) (- 50))) (?v_11 (<= (+ (- (* 47 x28) (* 42 x28)) (* 52 x22)) (- 48)))) (let ((?v_188 (not ?v_0)) (?v_27 (< (- (+ (* 20 x20) (* 13 x30)) (* 47 x18)) (- 31)))) (let ((?v_59 (not ?v_27)) (?v_19 (< (- (+ (* (- 11) x21) (* 21 x4)) (* 40 x36)) (- 31))) (?v_85 (= (- (- (* (- 51) x18) (* 43 x8)) (* 40 x24)) 53))) (let ((?v_10 (not ?v_85)) (?v_9 (< (+ (* (- 40) x30) (* 4 x33)) 12)) (?v_14 (<= (+ (- (* 51 x16) (* 20 x34)) (* 21 x35)) (- 38)))) (let ((?v_70 (not ?v_14)) (?v_90 (< (+ (* 45 x6) (* 44 x4) (* 22 x4)) (- 30))) (?v_100 (<= (+ (- (* (- 42) x11) 0) (* 47 x11)) 54))) (let ((?v_78 (not ?v_100)) (?v_179 (<= (+ (- (* (- 21) x11) (* 9 x23)) (* 54 x24)) 2))) (let ((?v_77 (not ?v_179)) (?v_55 (< (+ (- (* (- 32) x1) (* 53 x23)) (* 51 x26)) (- 36)))) (let ((?v_34 (not ?v_55)) (?v_16 (< (- (- (* 49 x1) (* 5 x39)) (* 37 x28)) (- 52))) (?v_145 (not ?v_9)) (?v_125 (<= (+ (* (- 13) x1) (* 28 x6) (* 55 x30)) (- 38)))) (let ((?v_37 (not ?v_125)) (?v_175 (not ?v_16)) (?v_29 (< (- (- (* 36 x7) (* 32 x17)) (* 11 x32)) (- 23))) (?v_38 (= (+ (- (* (- 34) x39) (* 25 x24)) (* 18 x13)) (- 30)))) (let ((?v_31 (not ?v_38)) (?v_42 (<= (- (- (* (- 13) x23) (* 54 x38)) (* 30 x2)) (- 23))) (?v_135 (= (+ (* (- 31) x33) (* 12 x5) (* 11 x23)) (- 51)))) (let ((?v_180 (not ?v_135)) (?v_154 (not ?v_13)) (?v_56 (= (- (+ (* 4 x10) (* 32 x7)) (* 7 x2)) (- 17)))) (let ((?v_143 (not ?v_56)) (?v_53 (not ?v_29)) (?v_61 (< (- (- (* (- 48) x4) 0) (* 50 x10)) (- 36))) (?v_49 (not ?v_42)) (?v_51 (= (- (- (* (- 35) x9) (* 2 x34)) (* 19 x22)) (- 58))) (?v_93 (= (+ (- (* 53 x13) (* 35 x19)) (* 50 x1)) (- 55))) (?v_89 (not ?v_19)) (?v_151 (distinct (- (+ (* (- 40) x37) (* 57 x16)) (* 40 x10)) 2))) (let ((?v_178 (not ?v_61)) (?v_102 (not ?v_11)) (?v_91 (not ?v_51)) (?v_187 (not ?v_90)) (?v_169 (distinct (+ (* 33 x7) (* 55 x36) (* 8 x3)) (- 56)))) (let ((?v_141 (not ?v_169)) (?v_127 (not ?v_93)) (?v_156 (< (- (- (* (- 17) x10) (* 31 x16)) (* 20 x11)) (- 56)))) (let ((?v_183 (not ?v_156)) (?v_181 (not ?v_151))) (and (and (and (and (and (and (and (and (and (and (and (and (and (and (and (and (and (and (and (and (and (and (and (and (and (and (and (and (and (and (and (and (and (and (and (and (and (and (and (and (and (and (and (and (and (and (and (and (and (and (and (and (and (and (and (and (and (and (and (and (and (and (and (and (and (and (and (and (and (and (and (and (and (and (and (and (and (and (and (and (and (and (and (and (and (and (and (and (and (and (and (and (and (and (and (and (and (and (and (and (and (and (and (and (and (and (and (and (and (and (and (and (and (and (and (and (and (and (and (and (and (and (and (and (and (and (and (and (and (and (and (and (and (and (and (and (and (and (and (and (and (and (and (and (and (and (and (and (and (and (and (and (and (and (and (and (and (and (and (and (and (and (and (and (and (and (and (and (and (and (and (and (and (and (and (and (and (and (and (and (and (and (and (and (and (and (and (and (and (and (and (and (and (and (and (and (and (and (and (and (and (and (and (and (and (and (and (and (and (and (and (and (and (and (and (and (and (and (and (and (and (and (and (and (and (and (and (and (and (and (and (and (and (and (and (and (and (and (and (and (and (and (and (and (and (and (and (and (and (and (and (and (and (and (and (and (and (and (and (and (and (and (and (and (and (and (and (and (and (and (and (and (and (and (and (and (and (and (and (and (and (and (and (and (and (and (and (and (and (and (and (and (and (and (and (and (and (and (and (and (and (and (and (and (and (and (and (and (and (and (and (and (and (and (and (and (and (and (and (and (and (and (and (and (and (and (and (and (and (and (and (and (and (and (and (and (and (and (and (and (and (and (and (and (and (and (and (and (and (and (and (and (and (and (and (and (and (and (and (and (and (and (and (and (and (and (and (and (and (and (and (and (and (and (and (and (and (and (and (and (and (and (and (and (and (and (and (and (and (and (and (and (and (and (and (and (and (and (and (and (and (and (and (and (and (and (and (and (and (and (and (and (and (and (and (and (and (and (and (and (and (and (and (and (and (and (and (and (and (and (and (and (and (and (and (and (and (and (and (and (and (and (and (and (and (and (and (and (and (and (and (and (and (and (and (and (and (and (and (and (and (and (and (and (and (and (and (and (and (and (and (and (and (and (and (and (and (and (and (or (or ?v_6 ?v_69) P10) (or (or ?v_150 ?v_64) ?v_204)) (or (or P19 ?v_5) ?v_4)) (or (or ?v_130 ?v_8) ?v_73)) (or (or ?v_131 ?v_1) ?v_98)) (or (or ?v_0 P29) ?v_26)) (or (or P12 ?v_13) ?v_11)) (or (or ?v_188 ?v_2) ?v_12)) (or (or ?v_1 ?v_24) ?v_81)) (or (or ?v_59 ?v_19) ?v_137)) (or (or ?v_10 ?v_28) ?v_2)) (or (or ?v_3 ?v_52) P36)) (or (or ?v_4 ?v_25) P25)) (or (or ?v_32 ?v_60) ?v_48)) (or (or ?v_6 ?v_96) P16)) (or (or ?v_47 ?v_58) P4)) (or (or ?v_9 ?v_99) P30)) (or (or ?v_70 P7) ?v_7)) (or (or ?v_90 ?v_78) ?v_40)) (or ?v_114 ?v_115)) (or (or ?v_17 ?v_4) ?v_77)) (or (or ?v_116 ?v_34) P6)) (or (or ?v_148 ?v_9) ?v_10)) (or (or ?v_41 ?v_11) ?v_43)) (or (or ?v_16 ?v_12) ?v_72)) (or (or ?v_13 ?v_23) P0)) (or (or ?v_36 P1) P25)) (or (or ?v_14 P4) ?v_15)) (or (or ?v_63 ?v_145) P3)) (or (or ?v_45 ?v_108) ?v_20)) (or (or ?v_37 ?v_175) ?v_5)) (or (or ?v_110 P36) ?v_17)) (or (or ?v_29 ?v_18) P11)) (or (or ?v_31 ?v_22) P16)) (or (or ?v_15 ?v_19) P19)) (or (or ?v_186 ?v_66) ?v_42)) (or (or ?v_30 ?v_180) ?v_21)) (or (or ?v_82 P5) ?v_2)) (or (or ?v_83 ?v_23) P16)) (or (or ?v_199 ?v_107) P17)) (or (or ?v_154 ?v_24) P5)) (or (or ?v_25 ?v_26) ?v_27)) (or (or ?v_143 ?v_87) ?v_136)) (or (or P24 ?v_33) P35)) (or (or ?v_71 P23) ?v_28)) (or (or ?v_57 ?v_54) ?v_53)) (or (or P36 ?v_30) P19)) (or (or ?v_31 ?v_32) ?v_33)) (or (or ?v_61 ?v_34) ?v_10)) (or (or ?v_126 ?v_46) ?v_36)) (or (or ?v_37 ?v_38) ?v_39)) (or (or P10 ?v_44) ?v_40)) (or (or ?v_41 ?v_49) P9)) (or (or ?v_147 ?v_153) ?v_43)) (or (or ?v_75 ?v_14) P31)) (or (or ?v_84 ?v_44) ?v_51)) (or (or ?v_67 ?v_11) ?v_92)) (or (or ?v_11 ?v_45) P3)) (or (or ?v_128 ?v_195) P23)) (or (or ?v_14 ?v_47) ?v_121)) (or (or ?v_48 ?v_46) P31)) (or (or ?v_80 ?v_31) ?v_173)) (or (or P19 ?v_1) P22)) (or (or ?v_49 ?v_50) ?v_51)) (or (or ?v_52 ?v_132) P26)) (or (or P12 ?v_53) ?v_54)) (or (or ?v_55 ?v_26) ?v_56)) (or (or ?v_74 ?v_31) ?v_32)) (or (or P12 ?v_140) P4)) (or (or ?v_86 ?v_49) ?v_58)) (or (or ?v_9 ?v_59) ?v_22)) (or (or ?v_60 ?v_61) ?v_62)) (or (or ?v_63 P19) ?v_64)) (or (or ?v_88 ?v_55) ?v_65)) (or (or ?v_36 ?v_118) ?v_21)) (or (or ?v_32 P36) ?v_26)) (or (or ?v_146 ?v_55) ?v_66)) (or (or ?v_52 ?v_174) ?v_31)) (or (or ?v_57 ?v_32) ?v_67)) (or (or ?v_53 ?v_68) P28)) (or (or ?v_182 ?v_47) ?v_70)) (or (or ?v_49 ?v_51) ?v_123)) (or (or P30 ?v_72) ?v_52)) (or (or ?v_190 ?v_93) ?v_28)) (or (or ?v_89 P2) ?v_79)) (or (or ?v_42 ?v_74) ?v_60)) (or (or ?v_15 ?v_13) ?v_103)) (or (or ?v_76 P29) ?v_77)) (or (or P31 P9) ?v_78)) (or (or ?v_144 ?v_18) ?v_138)) (or (or ?v_151 ?v_94) ?v_79)) (or (or ?v_9 ?v_33) ?v_53)) (or (or P30 ?v_50) ?v_80)) (or (or ?v_194 ?v_105) ?v_81)) (or (or P12 ?v_106) P4)) (or (or ?v_82 ?v_83) ?v_48)) (or (or ?v_152 ?v_84) ?v_129)) (or (or ?v_178 ?v_85) ?v_59)) (or (or ?v_102 ?v_86) ?v_184)) (or (or ?v_14 ?v_185) ?v_91)) (or (or ?v_38 P5) ?v_88)) (or (or ?v_3 ?v_89) ?v_64)) (or (or ?v_101 P19) ?v_8)) (or (or ?v_165 ?v_187) ?v_48)) (or (or ?v_43 ?v_91) P24)) (or (or ?v_141 ?v_77) ?v_92)) (or (or ?v_93 ?v_5) ?v_8)) (or (or ?v_119 ?v_72) ?v_94)) (or (or ?v_95 ?v_96) ?v_42)) (or (or ?v_87 P30) ?v_65)) (or (or P31 ?v_17) ?v_97)) (or (or ?v_98 ?v_17) P2)) (or (or ?v_76 ?v_50) ?v_99)) (or (or ?v_49 P29) P27)) (or (or ?v_42 P22) ?v_85)) (or (or ?v_133 ?v_88) ?v_100)) (or (or ?v_91 ?v_101) ?v_1)) (or (or ?v_29 ?v_70) ?v_42)) (or (or ?v_41 ?v_44) ?v_63)) (or (or P2 ?v_102) P33)) (or (or ?v_14 ?v_87) ?v_103)) (or (or ?v_62 ?v_85) P6)) (or (or ?v_26 ?v_104) ?v_29)) (or (or ?v_105 ?v_64) ?v_106)) (or (or ?v_103 ?v_61) P34)) (or (or P32 P33) ?v_109)) (or (or ?v_160 ?v_108) ?v_109)) (or (or ?v_192 ?v_120) ?v_69)) (or (or ?v_47 ?v_8) ?v_111)) (or (or ?v_112 P21) ?v_1)) (or (or ?v_77 ?v_84) ?v_113)) (or (or ?v_11 ?v_177) ?v_85)) (or (or ?v_22 P11) ?v_37)) (or ?v_114 P34)) (or (or ?v_115 P21) P11)) (or (or ?v_116 ?v_74) ?v_59)) (or (or ?v_117 ?v_57) ?v_107)) (or (or ?v_46 ?v_118) ?v_0)) (or (or ?v_122 ?v_12) ?v_13)) (or (or ?v_127 ?v_8) ?v_97)) (or (or ?v_8 ?v_119) ?v_170)) (or (or ?v_17 ?v_47) ?v_120)) (or (or ?v_15 ?v_121) ?v_94)) (or (or ?v_26 P6) P13)) (or (or ?v_122 ?v_23) ?v_10)) (or (or ?v_105 ?v_8) ?v_14)) (or (or ?v_31 ?v_91) ?v_27)) (or (or P20 ?v_123) ?v_29)) (or (or ?v_162 ?v_98) ?v_51)) (or (or ?v_100 ?v_31) ?v_124)) (or (or ?v_13 ?v_24) ?v_50)) (or (or ?v_123 ?v_105) P39)) (or (or ?v_60 ?v_125) ?v_10)) (or (or ?v_126 ?v_38) ?v_197)) (or (or ?v_65 ?v_127) ?v_176)) (or (or P32 ?v_74) ?v_78)) (or (or ?v_128 ?v_129) ?v_14)) (or (or ?v_6 ?v_34) ?v_12)) (or (or ?v_73 ?v_112) P29)) (or (or ?v_125 ?v_130) ?v_131)) (or (or ?v_1 ?v_19) ?v_132)) (or (or ?v_133 ?v_104) ?v_200)) (or (or ?v_134 P24) P34)) (or (or ?v_33 ?v_106) ?v_71)) (or (or ?v_112 ?v_59) ?v_135)) (or (or ?v_2 P6) ?v_80)) (or (or P11 ?v_88) ?v_87)) (or (or ?v_136 ?v_137) ?v_90)) (or (or ?v_133 ?v_48) ?v_87)) (or (or P6 ?v_171) ?v_74)) (or (or P8 ?v_90) ?v_20)) (or (or ?v_48 ?v_44) ?v_82)) (or (or P27 ?v_25) ?v_134)) (or (or ?v_138 ?v_134) P4)) (or (or ?v_139 ?v_140) P15)) (or (or P3 ?v_86) ?v_141)) (or (or ?v_49 ?v_140) ?v_183)) (or (or ?v_198 ?v_143) P16)) (or (or ?v_69 ?v_24) ?v_74)) (or (or ?v_125 ?v_111) ?v_5)) (or (or ?v_95 ?v_144) ?v_81)) (or (or P22 ?v_145) ?v_59)) (or (or ?v_144 P29) ?v_106)) (or (or ?v_48 ?v_146) ?v_129)) (or (or ?v_5 ?v_28) ?v_63)) (or (or ?v_146 P15) ?v_56)) (or (or ?v_81 ?v_127) ?v_147)) (or (or ?v_148 P11) P12)) (or (or ?v_149 P25) ?v_150)) (or (or ?v_51 ?v_41) ?v_116)) (or (or ?v_181 ?v_106) ?v_152)) (or (or ?v_28 ?v_59) ?v_122)) (or (or ?v_79 ?v_124) P14)) (or (or ?v_83 ?v_94) ?v_153)) (or (or ?v_69 ?v_106) ?v_108)) (or (or ?v_44 ?v_101) ?v_154)) (or (or ?v_152 ?v_57) ?v_56)) (or (or ?v_18 P38) P31)) (or (or P21 P31) ?v_19)) (or (or ?v_155 ?v_122) ?v_7)) (or (or ?v_50 ?v_82) P3)) (or (or ?v_69 ?v_148) P18)) (or (or ?v_61 P15) P10)) (or (or ?v_130 ?v_156) ?v_129)) (or (or ?v_49 ?v_163) ?v_119)) (or (or ?v_155 ?v_29) ?v_125)) (or (or ?v_189 ?v_0) ?v_122)) (or (or ?v_159 ?v_160) ?v_120)) (or (or ?v_30 ?v_161) ?v_162)) (or (or ?v_69 ?v_110) P6)) (or (or ?v_93 P22) ?v_81)) (or (or ?v_43 ?v_146) ?v_23)) (or (or P34 P11) P29)) (or (or ?v_119 ?v_138) ?v_25)) (or (or ?v_6 ?v_128) ?v_81)) (or (or ?v_30 ?v_140) ?v_150)) (or (or ?v_40 ?v_53) ?v_103)) (or (or ?v_12 ?v_163) ?v_102)) (or (or ?v_92 ?v_29) ?v_43)) (or (or ?v_164 ?v_86) ?v_115)) (or (or ?v_76 ?v_55) ?v_165)) (or (or P7 ?v_44) ?v_166)) (or ?v_205 P22)) (or (or P36 ?v_59) P23)) (or (or P13 ?v_84) ?v_167)) (or (or ?v_168 ?v_120) ?v_169)) (or (or ?v_130 ?v_170) ?v_171)) (or (or ?v_144 ?v_172) ?v_124)) (or (or ?v_89 ?v_52) ?v_22)) (or (or ?v_95 ?v_40) ?v_173)) (or (or ?v_41 ?v_174) ?v_101)) (or (or P29 ?v_175) ?v_39)) (or (or ?v_170 ?v_50) ?v_154)) (or (or ?v_146 ?v_113) P16)) (or (or ?v_140 P17) ?v_42)) (or (or ?v_170 P13) ?v_60)) (or (or ?v_51 ?v_49) ?v_81)) (or (or ?v_19 P37) P19)) (or (or ?v_12 ?v_191) ?v_3)) (or (or P26 ?v_147) ?v_125)) (or (or ?v_13 P21) ?v_136)) (or (or ?v_80 ?v_29) P17)) (or (or ?v_47 ?v_98) ?v_79)) (or (or ?v_133 ?v_163) ?v_202)) (or (or P5 ?v_103) ?v_77)) (or (or ?v_144 ?v_178) ?v_107)) (or (or ?v_179 P15) ?v_12)) (or (or ?v_71 ?v_87) ?v_144)) (or (or ?v_6 ?v_193) ?v_34)) (or (or ?v_153 ?v_154) ?v_58)) (or (or ?v_119 ?v_15) ?v_42)) (or (or ?v_125 ?v_78) ?v_180)) (or (or P6 ?v_109) ?v_196)) (or (or ?v_10 ?v_51) ?v_6)) (or (or ?v_8 ?v_79) ?v_156)) (or (or ?v_91 ?v_60) ?v_77)) (or (or ?v_156 ?v_57) P8)) (or (or P36 ?v_18) ?v_107)) (or (or ?v_63 ?v_181) P4)) (or (or ?v_153 ?v_182) ?v_66)) (or (or ?v_203 ?v_183) ?v_167)) (or (or ?v_97 P8) ?v_109)) (or (or ?v_81 ?v_100) ?v_181)) (or (or ?v_126 ?v_40) ?v_184)) (or (or ?v_54 ?v_61) ?v_43)) (or (or ?v_10 P6) ?v_166)) (or (or ?v_134 ?v_177) ?v_185)) (or (or ?v_25 ?v_89) ?v_117)) (or (or P23 ?v_89) ?v_151)) (or (or ?v_186 P8) ?v_31)) (or (or ?v_175 P38) ?v_145)) (or (or ?v_187 ?v_111) ?v_72)) (or (or ?v_17 ?v_80) ?v_93)) (or (or ?v_125 ?v_188) ?v_144)) (or (or ?v_132 P15) ?v_51)) (or (or ?v_47 ?v_60) ?v_88)) (or (or ?v_184 P4) ?v_137)) (or (or ?v_172 ?v_81) ?v_141)) (or (or ?v_139 ?v_60) ?v_176)) (or (or P26 ?v_94) ?v_120)) (or (or ?v_5 ?v_71) ?v_147)) (or (or ?v_189 ?v_36) ?v_190)) (or (or ?v_109 P12) ?v_168)) (or (or ?v_143 ?v_84) ?v_24)) (or (or P17 ?v_189) ?v_104)) (or (or ?v_82 ?v_47) P36)) (or (or ?v_67 P2) ?v_4)) (or (or ?v_188 ?v_50) ?v_180)) (or (or ?v_12 ?v_84) ?v_76)) (or (or ?v_115 ?v_191) ?v_140)) (or (or ?v_90 ?v_187) P11)) (or (or ?v_40 ?v_133) ?v_128)) (or (or ?v_87 ?v_99) ?v_102)) (or (or ?v_126 P34) ?v_176)) (or (or P24 P23) P7)) (or (or ?v_30 ?v_192) ?v_87)) (or (or P29 ?v_49) ?v_163)) (or (or ?v_193 ?v_17) P23)) (or (or ?v_148 ?v_148) ?v_179)) (or (or ?v_111 ?v_162) ?v_92)) (or (or ?v_159 ?v_189) ?v_121)) (or (or ?v_32 ?v_194) ?v_129)) (or (or ?v_28 ?v_186) ?v_110)) (or (or ?v_109 P31) ?v_111)) (or (or ?v_182 ?v_193) P23)) (or (or ?v_1 ?v_0) ?v_148)) (or (or ?v_177 ?v_17) ?v_105)) (or (or P8 ?v_59) ?v_132)) (or (or ?v_14 P2) ?v_11)) (or (or ?v_81 P19) ?v_195)) (or (or ?v_64 ?v_83) ?v_167)) (or (or ?v_84 ?v_120) ?v_116)) (or (or ?v_8 ?v_59) ?v_173)) (or (or ?v_42 ?v_46) ?v_155)) (or (or ?v_89 ?v_196) ?v_24)) (or (or ?v_197 ?v_37) ?v_167)) (or (or ?v_120 ?v_7) ?v_153)) (or (or ?v_97 ?v_89) ?v_198)) (or (or ?v_161 ?v_192) ?v_154)) (or (or ?v_51 ?v_168) ?v_45)) (or (or P38 ?v_199) ?v_70)) (or (or ?v_124 ?v_89) ?v_151)) (or (or ?v_152 ?v_67) ?v_154)) (or (or ?v_18 ?v_124) ?v_178)) (or (or ?v_145 ?v_138) ?v_0)) (or (or ?v_100 ?v_103) ?v_80)) (or (or P33 P22) P24)) (or (or P19 ?v_105) P2)) (or (or P7 ?v_106) ?v_38)) (or (or ?v_105 ?v_47) ?v_53)) (or (or ?v_55 ?v_166) ?v_103)) (or (or ?v_176 ?v_74) ?v_173)) (or (or P9 ?v_102) ?v_10)) (or (or ?v_25 ?v_12) ?v_73)) (or (or ?v_33 ?v_99) ?v_153)) (or (or P5 ?v_23) P22)) (or (or ?v_179 P29) ?v_24)) (or (or P14 ?v_124) ?v_56)) (or (or ?v_101 ?v_166) ?v_172)) (or (or ?v_19 P17) ?v_11)) (or (or ?v_37 ?v_82) ?v_24)) (or (or ?v_46 ?v_30) ?v_54)) (or (or ?v_146 P30) ?v_71)) (or (or ?v_70 ?v_122) ?v_126)) (or (or ?v_136 ?v_164) ?v_148)) (or (or ?v_181 P4) P34)) (or (or P12 ?v_166) ?v_187)) (or (or ?v_3 ?v_134) ?v_95)) (or (or ?v_82 ?v_31) ?v_41)) (or (or ?v_149 ?v_121) ?v_28)) (or (or ?v_123 ?v_11) P15)) (or (or ?v_198 ?v_13) ?v_98)) (or (or ?v_29 ?v_9) ?v_177)) (or (or ?v_139 ?v_51) ?v_8)) (or (or ?v_38 ?v_75) ?v_45)) (or (or P14 ?v_198) ?v_192)) (or (or ?v_30 ?v_88) P32)) (or (or ?v_36 ?v_0) ?v_44)) (or (or ?v_145 ?v_86) ?v_25)) (or (or ?v_160 ?v_14) P11)) (or (or ?v_107 ?v_38) ?v_3)) (or (or ?v_16 ?v_198) P29)) (or (or P19 ?v_71) ?v_48)) (or (or ?v_57 ?v_62) P21)) (or (or ?v_47 ?v_71) ?v_5)) (or (or ?v_18 ?v_34) ?v_109)) (or (or P5 ?v_105) ?v_124)) (or (or ?v_45 ?v_117) ?v_38)) (or (or ?v_177 ?v_143) ?v_134)) (or (or ?v_133 ?v_156) ?v_162)) (or (or ?v_200 ?v_201) ?v_97)) (or (or P24 ?v_188) ?v_99)) (or (or ?v_120 ?v_87) ?v_95)) (or (or P38 ?v_153) ?v_161)) (or (or P23 ?v_128) ?v_59)) (or (or ?v_128 ?v_85) ?v_148)) (or (or ?v_107 ?v_8) ?v_12)) (or (or P4 P1) ?v_185)) (or (or ?v_42 ?v_57) ?v_6)) (or (or ?v_171 ?v_69) ?v_39)) (or (or ?v_86 P36) ?v_190)) (or (or P4 ?v_58) ?v_2)) (or (or ?v_111 ?v_85) ?v_42)) (or (or ?v_54 P31) ?v_16)) (or (or ?v_32 ?v_133) ?v_6)) (or (or ?v_55 ?v_139) ?v_67)) (or (or ?v_8 P36) P9)) (or (or ?v_41 ?v_30) ?v_149)) (or (or P20 ?v_70) ?v_43)) (or (or ?v_100 ?v_132) ?v_39)) (or (or ?v_76 ?v_163) ?v_97)) (or (or ?v_27 ?v_120) ?v_37)) (or (or ?v_92 ?v_89) P2)) (or (or ?v_133 ?v_3) ?v_41)) (or (or ?v_91 ?v_155) ?v_83)) (or (or ?v_182 ?v_192) ?v_77)) (or (or ?v_123 ?v_5) ?v_185)) (or (or ?v_111 ?v_148) ?v_14)) (or (or ?v_152 ?v_83) ?v_80)) (or (or P7 ?v_24) ?v_68)) (or (or ?v_82 ?v_27) ?v_32)) (or (or ?v_160 ?v_155) ?v_108)) (or (or ?v_155 ?v_151) ?v_36)) (or (or ?v_201 ?v_19) ?v_182)) (or (or ?v_88 ?v_23) ?v_166)) (or (or ?v_75 ?v_180) ?v_168)) (or (or ?v_43 ?v_36) ?v_139)) (or (or ?v_40 ?v_141) ?v_51)) (or (or ?v_1 P26) P22)) (or (or ?v_92 ?v_180) ?v_59)) (or (or ?v_111 ?v_109) ?v_154)) (or (or P11 ?v_107) P26)) (or (or ?v_98 ?v_119) ?v_70)) (or (or ?v_154 P7) P21)) (or (or P2 ?v_47) P28)) (or (or ?v_57 ?v_111) ?v_196)) (or (or ?v_49 ?v_47) ?v_155)) (or (or P37 ?v_43) ?v_104)) (or (or ?v_110 P27) ?v_177)) (or (or ?v_193 P20) ?v_126)) (or (or ?v_166 ?v_111) ?v_57)) (or (or ?v_113 ?v_16) ?v_54)) (or (or ?v_14 ?v_21) ?v_31)) (or (or ?v_19 P33) P25)) (or (or ?v_93 ?v_173) ?v_197)) (or (or ?v_173 ?v_7) ?v_118)) (or (or ?v_61 ?v_155) ?v_75)) (or (or ?v_127 ?v_51) ?v_140)) (or (or ?v_93 ?v_147) ?v_2)) (or (or P25 ?v_80) ?v_78)) (or (or ?v_73 P25) ?v_78)) (or (or ?v_76 ?v_54) ?v_77)) (or (or P17 P32) ?v_177)) (or (or ?v_202 ?v_156) ?v_77)) (or (or ?v_164 ?v_187) ?v_173)) (or (or ?v_121 ?v_110) ?v_32)) (or (or ?v_132 ?v_0) ?v_79)) (or (or ?v_191 P14) ?v_46)) (or (or ?v_165 ?v_12) ?v_145)) (or (or ?v_164 ?v_9) P31)) (or (or ?v_190 ?v_108) ?v_79)) (or (or ?v_203 ?v_64) P38)) (or (or ?v_104 ?v_203) ?v_56)) (or (or ?v_162 ?v_89) ?v_86)) (or (or ?v_204 ?v_26) ?v_21)) (or (or ?v_136 ?v_96) P15)) (or (or ?v_147 P14) ?v_104)) (or (or ?v_137 ?v_155) ?v_101)) (or (or P5 ?v_68) ?v_21)) (or (or P25 ?v_149) ?v_131)) (or (or ?v_184 P1) ?v_67)) (or (or ?v_90 ?v_71) ?v_65)) (or (or ?v_54 ?v_172) P32)) (or (or ?v_28 ?v_126) P13)) (or (or ?v_68 ?v_105) ?v_188)) (or (or ?v_61 ?v_167) ?v_77)) (or (or ?v_188 ?v_172) ?v_106)) (or (or P38 ?v_86) ?v_79)) (or (or ?v_26 ?v_138) ?v_3)) (or (or P20 ?v_83) ?v_161)) (or (or ?v_43 P26) ?v_203)) (or (or ?v_85 ?v_15) ?v_204)) (or (or ?v_174 ?v_130) ?v_28)) (or (or ?v_87 P33) ?v_89)) (or (or P35 ?v_130) ?v_204)) (or (or ?v_86 ?v_131) ?v_203)) (or (or P36 ?v_71) P18)) (or (or ?v_126 ?v_65) ?v_101)) (or ?v_205 ?v_197)) (or (or P7 ?v_0) ?v_156)) (or (or ?v_4 ?v_40) ?v_188)) (or (or ?v_81 ?v_80) ?v_28)) (or (or ?v_43 ?v_55) ?v_44)) (or (or P27 ?v_97) ?v_113)) (or (or ?v_16 P38) ?v_13)) (or (or ?v_23 ?v_109) P37)) (or (or ?v_100 ?v_59) P38)) (or (or ?v_88 P10) P11)) (or (or ?v_65 ?v_176) ?v_42)) (or (or ?v_125 ?v_171) ?v_82)))))))))))))))))))))))))))))
(check-sat)
(exit)
